Nodes = {"Gdansk", "Bydgoszcz", "Kolobrzeg", "Katowice", "Krakow", "Bialystok", "Lodz", "Poznan", "Rzeszow", "Szczecin", "Warsaw", "Wroclaw"};
Arcs = {<"Gdansk","Bydgoszcz",24,1>, <"Gdansk","Kolobrzeg",24,0>, <"Gdansk","Katowice",24,4>, <"Gdansk","Krakow",24,4>, <"Gdansk","Bialystok",24,0>, <"Gdansk","Lodz",24,3>, <"Gdansk","Poznan",24,3>, <"Gdansk","Rzeszow",24,5>, <"Gdansk","Szczecin",24,4>, <"Gdansk","Warsaw",24,0>, <"Gdansk","Wroclaw",24,4>, <"Bydgoszcz","Gdansk",24,1>, <"Bydgoszcz","Kolobrzeg",24,0>, <"Bydgoszcz","Katowice",24,3>, <"Bydgoszcz","Krakow",24,4>, <"Bydgoszcz","Bialystok",24,5>, <"Bydgoszcz","Lodz",24,2>, <"Bydgoszcz","Poznan",24,0>, <"Bydgoszcz","Rzeszow",24,5>, <"Bydgoszcz","Szczecin",24,3>, <"Bydgoszcz","Warsaw",24,0>, <"Bydgoszcz","Wroclaw",24,2>, <"Kolobrzeg","Gdansk",24,0>, <"Kolobrzeg","Bydgoszcz",24,0>, <"Kolobrzeg","Katowice",24,5>, <"Kolobrzeg","Krakow",24,6>, <"Kolobrzeg","Bialystok",24,7>, <"Kolobrzeg","Lodz",24,4>, <"Kolobrzeg","Poznan",24,2>, <"Kolobrzeg","Rzeszow",24,7>, <"Kolobrzeg","Szczecin",24,0>, <"Kolobrzeg","Warsaw",24,5>, <"Kolobrzeg","Wroclaw",24,3>, <"Katowice","Gdansk",24,4>, <"Katowice","Bydgoszcz",24,3>, <"Katowice","Kolobrzeg",24,5>, <"Katowice","Krakow",24,0>, <"Katowice","Bialystok",24,5>, <"Katowice","Lodz",24,0>, <"Katowice","Poznan",24,3>, <"Katowice","Rzeszow",24,3>, <"Katowice","Szczecin",24,5>, <"Katowice","Warsaw",24,3>, <"Katowice","Wroclaw",24,0>, <"Krakow","Gdansk",24,4>, <"Krakow","Bydgoszcz",24,4>, <"Krakow","Kolobrzeg",24,6>, <"Krakow","Katowice",24,0>, <"Krakow","Bialystok",24,5>, <"Krakow","Lodz",24,2>, <"Krakow","Poznan",24,4>, <"Krakow","Rzeszow",24,0>, <"Krakow","Szczecin",24,6>, <"Krakow","Warsaw",24,0>, <"Krakow","Wroclaw",24,3>, <"Bialystok","Gdansk",24,0>, <"Bialystok","Bydgoszcz",24,5>, <"Bialystok","Kolobrzeg",24,7>, <"Bialystok","Katowice",24,5>, <"Bialystok","Krakow",24,5>, <"Bialystok","Lodz",24,4>, <"Bialystok","Poznan",24,6>, <"Bialystok","Rzeszow",24,0>, <"Bialystok","Szczecin",24,9>, <"Bialystok","Warsaw",24,0>, <"Bialystok","Wroclaw",24,7>, <"Lodz","Gdansk",24,3>, <"Lodz","Bydgoszcz",24,2>, <"Lodz","Kolobrzeg",24,4>, <"Lodz","Katowice",24,0>, <"Lodz","Krakow",24,2>, <"Lodz","Bialystok",24,4>, <"Lodz","Poznan",24,3>, <"Lodz","Rzeszow",24,3>, <"Lodz","Szczecin",24,5>, <"Lodz","Warsaw",24,0>, <"Lodz","Wroclaw",24,0>, <"Poznan","Gdansk",24,3>, <"Poznan","Bydgoszcz",24,0>, <"Poznan","Kolobrzeg",24,2>, <"Poznan","Katowice",24,3>, <"Poznan","Krakow",24,4>, <"Poznan","Bialystok",24,6>, <"Poznan","Lodz",24,3>, <"Poznan","Rzeszow",24,6>, <"Poznan","Szczecin",24,0>, <"Poznan","Warsaw",24,4>, <"Poznan","Wroclaw",24,0>, <"Rzeszow","Gdansk",24,5>, <"Rzeszow","Bydgoszcz",24,5>, <"Rzeszow","Kolobrzeg",24,7>, <"Rzeszow","Katowice",24,3>, <"Rzeszow","Krakow",24,0>, <"Rzeszow","Bialystok",24,0>, <"Rzeszow","Lodz",24,3>, <"Rzeszow","Poznan",24,6>, <"Rzeszow","Szczecin",24,8>, <"Rzeszow","Warsaw",24,2>, <"Rzeszow","Wroclaw",24,5>, <"Szczecin","Gdansk",24,4>, <"Szczecin","Bydgoszcz",24,3>, <"Szczecin","Kolobrzeg",24,0>, <"Szczecin","Katowice",24,5>, <"Szczecin","Krakow",24,6>, <"Szczecin","Bialystok",24,9>, <"Szczecin","Lodz",24,5>, <"Szczecin","Poznan",24,0>, <"Szczecin","Rzeszow",24,8>, <"Szczecin","Warsaw",24,7>, <"Szczecin","Wroclaw",24,3>, <"Warsaw","Gdansk",24,0>, <"Warsaw","Bydgoszcz",24,0>, <"Warsaw","Kolobrzeg",24,5>, <"Warsaw","Katowice",24,3>, <"Warsaw","Krakow",24,0>, <"Warsaw","Bialystok",24,0>, <"Warsaw","Lodz",24,0>, <"Warsaw","Poznan",24,4>, <"Warsaw","Rzeszow",24,2>, <"Warsaw","Szczecin",24,7>, <"Warsaw","Wroclaw",24,4>, <"Wroclaw","Gdansk",24,4>, <"Wroclaw","Bydgoszcz",24,2>, <"Wroclaw","Kolobrzeg",24,3>, <"Wroclaw","Katowice",24,0>, <"Wroclaw","Krakow",24,3>, <"Wroclaw","Bialystok",24,7>, <"Wroclaw","Lodz",24,0>, <"Wroclaw","Poznan",24,0>, <"Wroclaw","Rzeszow",24,5>, <"Wroclaw","Szczecin",24,3>, <"Wroclaw","Warsaw",24,4>};
Demands = {<"Gdansk","Bydgoszcz",2,0>, <"Gdansk","Kolobrzeg",4,0>, <"Gdansk","Katowice",6,0>, <"Gdansk","Krakow",8,0>, <"Gdansk","Bialystok",10,0>, <"Gdansk","Lodz",12,0>, <"Gdansk","Poznan",14,0>, <"Gdansk","Rzeszow",16,0>, <"Gdansk","Szczecin",18,0>, <"Gdansk","Warsaw",20,0>, <"Gdansk","Wroclaw",22,0>, <"Bydgoszcz","Gdansk",2,0>, <"Bydgoszcz","Kolobrzeg",2,0>, <"Bydgoszcz","Katowice",4,0>, <"Bydgoszcz","Krakow",6,0>, <"Bydgoszcz","Bialystok",8,0>, <"Bydgoszcz","Lodz",10,0>, <"Bydgoszcz","Poznan",12,0>, <"Bydgoszcz","Rzeszow",14,0>, <"Bydgoszcz","Szczecin",16,0>, <"Bydgoszcz","Warsaw",18,0>, <"Bydgoszcz","Wroclaw",20,0>, <"Kolobrzeg","Gdansk",4,0>, <"Kolobrzeg","Bydgoszcz",2,0>, <"Kolobrzeg","Katowice",2,0>, <"Kolobrzeg","Krakow",4,0>, <"Kolobrzeg","Bialystok",6,0>, <"Kolobrzeg","Lodz",8,0>, <"Kolobrzeg","Poznan",10,0>, <"Kolobrzeg","Rzeszow",12,0>, <"Kolobrzeg","Szczecin",14,0>, <"Kolobrzeg","Warsaw",16,0>, <"Kolobrzeg","Wroclaw",18,0>, <"Katowice","Gdansk",6,0>, <"Katowice","Bydgoszcz",4,0>, <"Katowice","Kolobrzeg",2,0>, <"Katowice","Krakow",2,0>, <"Katowice","Bialystok",4,0>, <"Katowice","Lodz",6,0>, <"Katowice","Poznan",8,0>, <"Katowice","Rzeszow",10,0>, <"Katowice","Szczecin",12,0>, <"Katowice","Warsaw",14,0>, <"Katowice","Wroclaw",16,0>, <"Krakow","Gdansk",8,0>, <"Krakow","Bydgoszcz",6,0>, <"Krakow","Kolobrzeg",4,0>, <"Krakow","Katowice",2,0>, <"Krakow","Bialystok",2,0>, <"Krakow","Lodz",4,0>, <"Krakow","Poznan",6,0>, <"Krakow","Rzeszow",8,0>, <"Krakow","Szczecin",10,0>, <"Krakow","Warsaw",12,0>, <"Krakow","Wroclaw",14,0>, <"Bialystok","Gdansk",10,0>, <"Bialystok","Bydgoszcz",8,0>, <"Bialystok","Kolobrzeg",6,0>, <"Bialystok","Katowice",4,0>, <"Bialystok","Krakow",2,0>, <"Bialystok","Lodz",2,0>, <"Bialystok","Poznan",4,0>, <"Bialystok","Rzeszow",6,0>, <"Bialystok","Szczecin",8,0>, <"Bialystok","Warsaw",10,0>, <"Bialystok","Wroclaw",12,0>, <"Lodz","Gdansk",12,0>, <"Lodz","Bydgoszcz",10,0>, <"Lodz","Kolobrzeg",8,0>, <"Lodz","Katowice",6,0>, <"Lodz","Krakow",4,0>, <"Lodz","Bialystok",2,0>, <"Lodz","Poznan",2,0>, <"Lodz","Rzeszow",4,0>, <"Lodz","Szczecin",6,0>, <"Lodz","Warsaw",8,0>, <"Lodz","Wroclaw",10,0>, <"Poznan","Gdansk",14,0>, <"Poznan","Bydgoszcz",12,0>, <"Poznan","Kolobrzeg",10,0>, <"Poznan","Katowice",8,0>, <"Poznan","Krakow",6,0>, <"Poznan","Bialystok",4,0>, <"Poznan","Lodz",2,0>, <"Poznan","Rzeszow",2,0>, <"Poznan","Szczecin",4,0>, <"Poznan","Warsaw",6,0>, <"Poznan","Wroclaw",8,0>, <"Rzeszow","Gdansk",16,0>, <"Rzeszow","Bydgoszcz",14,0>, <"Rzeszow","Kolobrzeg",12,0>, <"Rzeszow","Katowice",10,0>, <"Rzeszow","Krakow",8,0>, <"Rzeszow","Bialystok",6,0>, <"Rzeszow","Lodz",4,0>, <"Rzeszow","Poznan",2,0>, <"Rzeszow","Szczecin",2,0>, <"Rzeszow","Warsaw",4,0>, <"Rzeszow","Wroclaw",6,0>, <"Szczecin","Gdansk",18,0>, <"Szczecin","Bydgoszcz",16,0>, <"Szczecin","Kolobrzeg",14,0>, <"Szczecin","Katowice",12,0>, <"Szczecin","Krakow",10,0>, <"Szczecin","Bialystok",8,0>, <"Szczecin","Lodz",6,0>, <"Szczecin","Poznan",4,0>, <"Szczecin","Rzeszow",2,0>, <"Szczecin","Warsaw",2,0>, <"Szczecin","Wroclaw",4,0>, <"Warsaw","Gdansk",20,0>, <"Warsaw","Bydgoszcz",18,0>, <"Warsaw","Kolobrzeg",16,0>, <"Warsaw","Katowice",14,0>, <"Warsaw","Krakow",12,0>, <"Warsaw","Bialystok",10,0>, <"Warsaw","Lodz",8,0>, <"Warsaw","Poznan",6,0>, <"Warsaw","Rzeszow",4,0>, <"Warsaw","Szczecin",2,0>, <"Warsaw","Wroclaw",2,0>, <"Wroclaw","Gdansk",22,0>, <"Wroclaw","Bydgoszcz",20,0>, <"Wroclaw","Kolobrzeg",18,0>, <"Wroclaw","Katowice",16,0>, <"Wroclaw","Krakow",14,0>, <"Wroclaw","Bialystok",12,0>, <"Wroclaw","Lodz",10,0>, <"Wroclaw","Poznan",8,0>, <"Wroclaw","Rzeszow",6,0>, <"Wroclaw","Szczecin",4,0>, <"Wroclaw","Warsaw",2,0>};
